PROBLEM NAME: eil51_n8
KNAPSACK DATA TYPE: multiple strongly correlated
DIMENSION: 8
NUMBER OF ITEMS: 7
CAPACITY OF KNAPSACK: 2413
MIN SPEED: 0.1
MAX SPEED: 1
RENTING RATIO: 6.36
EDGE_WEIGHT_TYPE: CEIL_2D
NODE_COORD_SECTION	(INDEX, X, Y):
1	52	64
2	57	58
3	16	57
4	27	68
5	58	48
6	10	17
7	39	10
8	48	28
ITEMS SECTION	(INDEX, PROFIT, WEIGHT, ASSIGNED NODE NUMBER):
1	1128	928	4
2	990	790	3
3	973	773	6
4	882	682	7
5	852	652	8
6	688	488	5
7	311	111	2
